# Objective value = 7484.83998684932
I_0_0 3057
I_0_1 4293
I_0_2 3.7029999689631277e+03
I_0_3 3.7470000176069511e+03
I_0_4 3.6949999759684965e+03
I_0_5 3.2330000787314707e+03
I_0_6 4.4690000787314711e+03
I_1_0 108
I_1_1 54
I_1_2 108
I_1_3 54
I_1_4 108
I_1_5 5.3999999999999957e+01
I_1_6 0
I_2_0 15
I_2_1 0
I_2_2 15
I_2_3 0
I_2_4 15
I_2_5 15
I_2_6 0
I_3_0 83
I_3_1 0
I_3_2 83
I_3_3 0
I_3_4 83
I_3_5 83
I_3_6 0
I_4_0 25
I_4_1 0
I_4_2 25
I_4_3 25
I_4_4 4.97749844759456e-06
I_4_5 25
I_4_6 0
I_5_0 72
I_5_1 36
I_5_2 0
I_5_3 72
I_5_4 72
I_5_5 3.6000000000000014e+01
I_5_6 1.4210854715202004e-14
I_6_0 78
I_6_1 0
I_6_2 78
I_6_3 0
I_6_4 78
I_6_5 78
I_6_6 0
I_7_0 82
I_7_1 41
I_7_2 8.2000000000000014e+01
I_7_3 4.1000000000000014e+01
I_7_4 8.1999964008566153e+01
I_7_5 4.1000017995716995e+01
I_7_6 1.7995716994789746e-05
I_8_0 116
I_8_1 58
I_8_2 116
I_8_3 116
I_8_4 5.7999999999999979e+01
I_8_5 116
I_8_6 5.7999999999999957e+01
I_9_0 85
I_9_1 0
I_9_2 85
I_9_3 0
I_9_4 85
I_9_5 85
I_9_6 0
I_10_0 54
I_10_1 27
I_10_2 0
I_10_3 54
I_10_4 2.7000005375698311e+01
I_10_5 5.3999994624301678e+01
I_10_6 2.6999994624301678e+01
I_11_0 36
I_11_1 18
I_11_2 36
I_11_3 18
I_11_4 3.5999992832402228e+01
I_11_5 1.8000003583798886e+01
I_11_6 3.5837988860976111e-06
I_12_0 54
I_12_1 0
I_12_2 54
I_12_3 0
I_12_4 54
I_12_5 54
I_12_6 0
I_13_0 32
I_13_1 0
I_13_2 32
I_13_3 32
I_13_4 0
I_13_5 32
I_13_6 0
I_14_0 54
I_14_1 27
I_14_2 54
I_14_3 27
I_14_4 5.3999974099441332e+01
I_14_5 2.7000012950279327e+01
I_14_6 1.2950279327128555e-05
I_15_0 76
I_15_1 0
I_15_2 76
I_15_3 76
I_15_4 0
I_15_5 76
I_15_6 0
I_16_0 35
I_16_1 0
I_16_2 35
I_16_3 0
I_16_4 35
I_16_5 35
I_16_6 0
I_17_0 65
I_17_1 0
I_17_2 65
I_17_3 0
I_17_4 65
I_17_5 65
I_17_6 0
I_18_0 19
I_18_1 0
I_18_2 19
I_18_3 1.8999984481851069e+01
I_18_4 1.5518435755010068e-05
I_18_5 19
I_18_6 0
I_19_0 166
I_19_1 83
I_19_2 1.3558212293673932e-04
I_19_3 1.6599993220893856e+02
I_19_4 8.2999932208938560e+01
I_19_5 1.6599996525952827e+02
I_19_6 8.2999965259528267e+01
I_20_0 56
I_20_1 0
I_20_2 56
I_20_3 1.3429347879622942e-05
I_20_4 5.5999986570118487e+01
I_20_5 56
I_20_6 0
I_21_0 128
I_21_1 64
I_21_2 1.2799989545474882e+02
I_21_3 6.4000052272625581e+01
I_21_4 8.2969583986771469e-05
I_21_5 1.2799996930304160e+02
I_21_6 6.3999969303041595e+01
I_22_0 162
I_22_1 81
I_22_2 0
I_22_3 162
I_22_4 8.1000019425418955e+01
I_22_5 161.999980574581
I_22_6 80.999980574581
I_23_0 15
I_23_1 0
I_23_2 15
I_23_3 0
I_23_4 15
I_23_5 15
I_23_6 0
I_24_0 13
I_24_1 0
I_24_2 13
I_24_3 13
I_24_4 0
I_24_5 13
I_24_6 0
I_25_0 192
I_25_1 96
I_25_2 0
I_25_3 192
I_25_4 9.6000046045438779e+01
I_25_5 1.9199997697728119e+02
I_25_6 95.9999769772812
q_1_0 0
q_1_1 108
q_1_2 0
q_1_3 108
q_1_4 0
q_1_5 0
q_2_0 0
q_2_1 30
q_2_2 0
q_2_3 30
q_2_4 15
q_2_5 0
q_3_0 0
q_3_1 166
q_3_2 0
q_3_3 166
q_3_4 83
q_3_5 0
q_4_0 0
q_4_1 50
q_4_2 25
q_4_3 4.97749844759456e-06
q_4_4 4.9999995022501551e+01
q_4_5 0
q_5_0 0
q_5_1 0
q_5_2 108
q_5_3 3.6000000000000028e+01
q_5_4 0
q_5_5 0
q_6_0 0
q_6_1 156
q_6_2 0
q_6_3 156
q_6_4 78
q_6_5 0
q_7_0 0
q_7_1 82
q_7_2 0
q_7_3 8.1999964008566138e+01
q_7_4 5.3987150842260689e-05
q_7_5 0
q_8_0 0
q_8_1 116
q_8_2 58
q_8_3 0
q_8_4 1.1600000000000003e+02
q_8_5 0
q_9_0 0
q_9_1 170
q_9_2 0
q_9_3 170
q_9_4 85
q_9_5 0
q_10_0 0
q_10_1 0
q_10_2 81
q_10_3 5.3756983113828483e-06
q_10_4 5.3999989248603370e+01
q_10_5 0
q_11_0 0
q_11_1 36
q_11_2 0
q_11_3 3.5999992832402228e+01
q_11_4 1.0751396658292833e-05
q_11_5 0
q_12_0 0
q_12_1 108
q_12_2 0
q_12_3 108
q_12_4 54
q_12_5 0
q_13_0 0
q_13_1 64
q_13_2 32
q_13_3 0
q_13_4 64
q_13_5 0
q_14_0 0
q_14_1 54
q_14_2 0
q_14_3 5.3999974099441332e+01
q_14_4 3.8850837995596521e-05
q_14_5 0
q_15_0 0
q_15_1 152
q_15_2 76
q_15_3 0
q_15_4 152
q_15_5 0
q_16_0 0
q_16_1 70
q_16_2 0
q_16_3 70
q_16_4 35
q_16_5 0
q_17_0 0
q_17_1 130
q_17_2 0
q_17_3 130
q_17_4 65
q_17_5 0
q_18_0 0
q_18_1 38
q_18_2 1.8999984481851069e+01
q_18_3 3.1036584686202922e-05
q_18_4 3.7999984481564240e+01
q_18_5 0
q_19_0 0
q_19_1 1.3558212290831761e-04
q_19_2 2.4899979662681562e+02
q_19_3 0
q_19_4 1.6600003305058971e+02
q_19_5 0
q_20_0 0
q_20_1 112
q_20_2 1.3429347879622942e-05
q_20_3 1.1199997314077061e+02
q_20_4 5.6000013429881513e+01
q_20_5 0
q_21_0 0
q_21_1 1.2799989545474884e+02
q_21_2 0.000156817876746757
q_21_3 3.0696958405831211e-05
q_21_4 1.9199988633345760e+02
q_21_5 0
q_22_0 0
q_22_1 0
q_22_2 243
q_22_3 1.9425418955165696e-05
q_22_4 1.6199996114916206e+02
q_22_5 0
q_23_0 0
q_23_1 30
q_23_2 0
q_23_3 30
q_23_4 15
q_23_5 0
q_24_0 0
q_24_1 26
q_24_2 13
q_24_3 0
q_24_4 26
q_24_5 0
q_25_0 0
q_25_1 0
q_25_2 288
q_25_3 4.6045438062204326e-05
q_25_4 1.9199993093184241e+02
q_25_5 0
y_0_0 0
y_0_1 1
y_0_2 1
y_0_3 1
y_0_4 1
y_0_5 0
y_1_0 0
y_1_1 1
y_1_2 0
y_1_3 1
y_1_4 0
y_1_5 0
y_2_0 0
y_2_1 1
y_2_2 0
y_2_3 1
y_2_4 1
y_2_5 0
y_3_0 0
y_3_1 1
y_3_2 0
y_3_3 1
y_3_4 1
y_3_5 0
y_4_0 0
y_4_1 1
y_4_2 1
y_4_3 1.9909993790378239e-07
y_4_4 1
y_4_5 0
y_5_0 0
y_5_1 0
y_5_2 1
y_5_3 1
y_5_4 0
y_5_5 0
y_6_0 0
y_6_1 1
y_6_2 0
y_6_3 1
y_6_4 1
y_6_5 0
y_7_0 0
y_7_1 1
y_7_2 0
y_7_3 9.9999956114105071e-01
y_7_4 4.3891992562716808e-07
y_7_5 0
y_8_0 0
y_8_1 1
y_8_2 1
y_8_3 0
y_8_4 1
y_8_5 0
y_9_0 0
y_9_1 1
y_9_2 0
y_9_3 1
y_9_4 1
y_9_5 0
y_10_0 0
y_10_1 0
y_10_2 1
y_10_3 1.9909993790378239e-07
y_10_4 9.9999980090006213e-01
y_10_5 0
y_11_0 0
y_11_1 1
y_11_2 0
y_11_3 9.9999980103895081e-01
y_11_4 1.9909993809186233e-07
y_11_5 0
y_12_0 0
y_12_1 1
y_12_2 0
y_12_3 1
y_12_4 1
y_12_5 0
y_13_0 0
y_13_1 1
y_13_2 1
y_13_3 0
y_13_4 1
y_13_5 0
y_14_0 0
y_14_1 1
y_14_2 0
y_14_3 9.9999952045261731e-01
y_14_4 4.7963997507061151e-07
y_14_5 0
y_15_0 0
y_15_1 1
y_15_2 1
y_15_3 0
y_15_4 1
y_15_5 0
y_16_0 0
y_16_1 1
y_16_2 0
y_16_3 1
y_16_4 1
y_16_5 0
y_17_0 0
y_17_1 1
y_17_2 0
y_17_3 1
y_17_4 1
y_17_5 0
y_18_0 0
y_18_1 1
y_18_2 9.9999918325531933e-01
y_18_3 8.1675977657947721e-07
y_18_4 1
y_18_5 0
y_19_0 0
y_19_1 8.1675977655613023e-07
y_19_2 0.999999183569956
y_19_3 4.1855990071523607e-07
y_19_4 9.9999958144009926e-01
y_19_5 0
y_20_0 0
y_20_1 1
y_20_2 2.3980978356469541e-07
y_20_3 9.9999976018068726e-01
y_20_4 1
y_20_5 0
y_21_0 0
y_21_1 9.9999918326626691e-01
y_21_2 8.1673373305602607e-07
y_21_3 4.78638291832092e-07
y_21_4 9.9999952043814988e-01
y_21_5 0
y_22_0 0
y_22_1 0
y_22_2 1
y_22_3 2.3981998742428345e-07
y_22_4 9.9999976018001258e-01
y_22_5 0
y_23_0 0
y_23_1 1
y_23_2 0
y_23_3 1
y_23_4 1
y_23_5 0
y_24_0 0
y_24_1 1
y_24_2 1
y_24_3 0
y_24_4 1
y_24_5 0
y_25_0 0
y_25_1 0
y_25_2 1
y_25_3 2.3981998748095980e-07
y_25_4 9.9999976018001246e-01
y_25_5 0
x_0_1_0 0
x_0_1_1 0
x_0_1_2 0
x_0_1_3 0
x_0_1_4 0
x_0_1_5 0
x_0_2_0 0
x_0_2_1 0
x_0_2_2 0
x_0_2_3 0
x_0_2_4 0
x_0_2_5 0
x_0_3_0 0
x_0_3_1 0
x_0_3_2 0
x_0_3_3 0
x_0_3_4 0
x_0_3_5 0
x_0_4_0 0
x_0_4_1 0
x_0_4_2 0
x_0_4_3 0
x_0_4_4 0
x_0_4_5 0
x_0_5_0 0
x_0_5_1 0
x_0_5_2 0
x_0_5_3 9.9999952037296724e-01
x_0_5_4 0
x_0_5_5 0
x_0_6_0 0
x_0_6_1 0
x_0_6_2 0
x_0_6_3 0
x_0_6_4 0
x_0_6_5 0
x_0_7_0 0
x_0_7_1 0
x_0_7_2 0
x_0_7_3 0
x_0_7_4 0
x_0_7_5 0
x_0_8_0 0
x_0_8_1 0
x_0_8_2 9.9999976020354364e-01
x_0_8_3 0
x_0_8_4 0
x_0_8_5 0
x_0_9_0 0
x_0_9_1 0
x_0_9_2 0
x_0_9_3 0
x_0_9_4 0
x_0_9_5 0
x_0_10_0 0
x_0_10_1 0
x_0_10_2 0
x_0_10_3 0
x_0_10_4 0
x_0_10_5 0
x_0_11_0 0
x_0_11_1 0
x_0_11_2 0
x_0_11_3 0
x_0_11_4 0
x_0_11_5 0
x_0_12_0 0
x_0_12_1 0
x_0_12_2 0
x_0_12_3 0
x_0_12_4 0
x_0_12_5 0
x_0_13_0 0
x_0_13_1 1.0000008147597748e+00
x_0_13_2 9.9999918327857007e-01
x_0_13_3 -4.7960162744503175e-07
x_0_13_4 9.9999997967832155e-01
x_0_13_5 0
x_0_14_0 0
x_0_14_1 0
x_0_14_2 0
x_0_14_3 0
x_0_14_4 0
x_0_14_5 0
x_0_15_0 0
x_0_15_1 0
x_0_15_2 0
x_0_15_3 0
x_0_15_4 0
x_0_15_5 0
x_0_16_0 0
x_0_16_1 0
x_0_16_2 0
x_0_16_3 0
x_0_16_4 0
x_0_16_5 0
x_0_17_0 0
x_0_17_1 0
x_0_17_2 0
x_0_17_3 0
x_0_17_4 0
x_0_17_5 0
x_0_18_0 0
x_0_18_1 0
x_0_18_2 0
x_0_18_3 0
x_0_18_4 0
x_0_18_5 0
x_0_19_0 0
x_0_19_1 0
x_0_19_2 0
x_0_19_3 0
x_0_19_4 0
x_0_19_5 0
x_0_20_0 0
x_0_20_1 0.999999183309251
x_0_20_2 2.3813291259609303e-07
x_0_20_3 1
x_0_20_4 1.0000000170266927e+00
x_0_20_5 0
x_0_21_0 0
x_0_21_1 0
x_0_21_2 8.1638497376019920e-07
x_0_21_3 9.5722866019201021e-07
x_0_21_4 0
x_0_21_5 0
x_0_22_0 0
x_0_22_1 0
x_0_22_2 0
x_0_22_3 0
x_0_22_4 0
x_0_22_5 0
x_0_23_0 0
x_0_23_1 0
x_0_23_2 0
x_0_23_3 0
x_0_23_4 0
x_0_23_5 0
x_0_24_0 0
x_0_24_1 0
x_0_24_2 0
x_0_24_3 0
x_0_24_4 0
x_0_24_5 0
x_0_25_0 0
x_0_25_1 0
x_0_25_2 0
x_0_25_3 0
x_0_25_4 0
x_0_25_5 0
x_1_2_0 0
x_1_2_1 0
x_1_2_2 0
x_1_2_3 0
x_1_2_4 0
x_1_2_5 0
x_1_3_0 0
x_1_3_1 0
x_1_3_2 0
x_1_3_3 0
x_1_3_4 0
x_1_3_5 0
x_1_4_0 0
x_1_4_1 0
x_1_4_2 0
x_1_4_3 0
x_1_4_4 0
x_1_4_5 0
x_1_5_0 0
x_1_5_1 0
x_1_5_2 0
x_1_5_3 0
x_1_5_4 0
x_1_5_5 0
x_1_6_0 0
x_1_6_1 0
x_1_6_2 0
x_1_6_3 0
x_1_6_4 0
x_1_6_5 0
x_1_7_0 0
x_1_7_1 0
x_1_7_2 0
x_1_7_3 0
x_1_7_4 0
x_1_7_5 0
x_1_8_0 0
x_1_8_1 0
x_1_8_2 0
x_1_8_3 0
x_1_8_4 0
x_1_8_5 0
x_1_9_0 0
x_1_9_1 1
x_1_9_2 0
x_1_9_3 9.9999976018001269e-01
x_1_9_4 0
x_1_9_5 0
x_1_10_0 0
x_1_10_1 0
x_1_10_2 0
x_1_10_3 0
x_1_10_4 0
x_1_10_5 0
x_1_11_0 0
x_1_11_1 0
x_1_11_2 0
x_1_11_3 2.3918964535586162e-07
x_1_11_4 0
x_1_11_5 0
x_1_12_0 0
x_1_12_1 1
x_1_12_2 0
x_1_12_3 1
x_1_12_4 0
x_1_12_5 0
x_1_13_0 0
x_1_13_1 0
x_1_13_2 0
x_1_13_3 0
x_1_13_4 0
x_1_13_5 0
x_1_14_0 0
x_1_14_1 0
x_1_14_2 0
x_1_14_3 0
x_1_14_4 0
x_1_14_5 0
x_1_15_0 0
x_1_15_1 0
x_1_15_2 0
x_1_15_3 0
x_1_15_4 0
x_1_15_5 0
x_1_16_0 0
x_1_16_1 0
x_1_16_2 0
x_1_16_3 0
x_1_16_4 0
x_1_16_5 0
x_1_17_0 0
x_1_17_1 0
x_1_17_2 0
x_1_17_3 0
x_1_17_4 0
x_1_17_5 0
x_1_18_0 0
x_1_18_1 0
x_1_18_2 0
x_1_18_3 0
x_1_18_4 0
x_1_18_5 0
x_1_19_0 0
x_1_19_1 0
x_1_19_2 0
x_1_19_3 0
x_1_19_4 0
x_1_19_5 0
x_1_20_0 0
x_1_20_1 0
x_1_20_2 0
x_1_20_3 0
x_1_20_4 0
x_1_20_5 0
x_1_21_0 0
x_1_21_1 0
x_1_21_2 0
x_1_21_3 0
x_1_21_4 0
x_1_21_5 0
x_1_22_0 0
x_1_22_1 0
x_1_22_2 0
x_1_22_3 0
x_1_22_4 0
x_1_22_5 0
x_1_23_0 0
x_1_23_1 0
x_1_23_2 0
x_1_23_3 0
x_1_23_4 0
x_1_23_5 0
x_1_24_0 0
x_1_24_1 0
x_1_24_2 0
x_1_24_3 0
x_1_24_4 0
x_1_24_5 0
x_1_25_0 0
x_1_25_1 0
x_1_25_2 0
x_1_25_3 0
x_1_25_4 0
x_1_25_5 0
x_2_3_0 0
x_2_3_1 0
x_2_3_2 0
x_2_3_3 0
x_2_3_4 0
x_2_3_5 0
x_2_4_0 0
x_2_4_1 0
x_2_4_2 0
x_2_4_3 0
x_2_4_4 0
x_2_4_5 0
x_2_5_0 0
x_2_5_1 0
x_2_5_2 0
x_2_5_3 1
x_2_5_4 0
x_2_5_5 0
x_2_6_0 0
x_2_6_1 0
x_2_6_2 0
x_2_6_3 0
x_2_6_4 0
x_2_6_5 0
x_2_7_0 0
x_2_7_1 9.9999918324022341e-01
x_2_7_2 0
x_2_7_3 9.9999918324022341e-01
x_2_7_4 6.7873991316247384e-07
x_2_7_5 0
x_2_8_0 0
x_2_8_1 0
x_2_8_2 0
x_2_8_3 0
x_2_8_4 0
x_2_8_5 0
x_2_9_0 0
x_2_9_1 0
x_2_9_2 0
x_2_9_3 0
x_2_9_4 0
x_2_9_5 0
x_2_10_0 0
x_2_10_1 0
x_2_10_2 0
x_2_10_3 0
x_2_10_4 0
x_2_10_5 0
x_2_11_0 0
x_2_11_1 0
x_2_11_2 0
x_2_11_3 0
x_2_11_4 0
x_2_11_5 0
x_2_12_0 0
x_2_12_1 0
x_2_12_2 0
x_2_12_3 0
x_2_12_4 0
x_2_12_5 0
x_2_13_0 0
x_2_13_1 0
x_2_13_2 0
x_2_13_3 0
x_2_13_4 0
x_2_13_5 0
x_2_14_0 0
x_2_14_1 0
x_2_14_2 0
x_2_14_3 0
x_2_14_4 0
x_2_14_5 0
x_2_15_0 0
x_2_15_1 0
x_2_15_2 0
x_2_15_3 0
x_2_15_4 0
x_2_15_5 0
x_2_16_0 0
x_2_16_1 0
x_2_16_2 0
x_2_16_3 0
x_2_16_4 0
x_2_16_5 0
x_2_17_0 0
x_2_17_1 0
x_2_17_2 0
x_2_17_3 0
x_2_17_4 0
x_2_17_5 0
x_2_18_0 0
x_2_18_1 1
x_2_18_2 0
x_2_18_3 8.1601903579761706e-07
x_2_18_4 1
x_2_18_5 0
x_2_19_0 0
x_2_19_1 8.1599054589792174e-07
x_2_19_2 0
x_2_19_3 0
x_2_19_4 9.9999932126008684e-01
x_2_19_5 0
x_2_20_0 0
x_2_20_1 0
x_2_20_2 0
x_2_20_3 0
x_2_20_4 0
x_2_20_5 0
x_2_21_0 0
x_2_21_1 0
x_2_21_2 0
x_2_21_3 0
x_2_21_4 0
x_2_21_5 0
x_2_22_0 0
x_2_22_1 0
x_2_22_2 0
x_2_22_3 0
x_2_22_4 0
x_2_22_5 0
x_2_23_0 0
x_2_23_1 0
x_2_23_2 0
x_2_23_3 0
x_2_23_4 0
x_2_23_5 0
x_2_24_0 0
x_2_24_1 0
x_2_24_2 0
x_2_24_3 0
x_2_24_4 0
x_2_24_5 0
x_2_25_0 0
x_2_25_1 0
x_2_25_2 0
x_2_25_3 0
x_2_25_4 0
x_2_25_5 0
x_3_4_0 0
x_3_4_1 0
x_3_4_2 0
x_3_4_3 0
x_3_4_4 0
x_3_4_5 0
x_3_5_0 0
x_3_5_1 0
x_3_5_2 0
x_3_5_3 0
x_3_5_4 0
x_3_5_5 0
x_3_6_0 0
x_3_6_1 0
x_3_6_2 0
x_3_6_3 0
x_3_6_4 0
x_3_6_5 0
x_3_7_0 0
x_3_7_1 0
x_3_7_2 0
x_3_7_3 0
x_3_7_4 0
x_3_7_5 0
x_3_8_0 0
x_3_8_1 0
x_3_8_2 0
x_3_8_3 0
x_3_8_4 0
x_3_8_5 0
x_3_9_0 0
x_3_9_1 0
x_3_9_2 0
x_3_9_3 0
x_3_9_4 0
x_3_9_5 0
x_3_10_0 0
x_3_10_1 0
x_3_10_2 0
x_3_10_3 0
x_3_10_4 0
x_3_10_5 0
x_3_11_0 0
x_3_11_1 0
x_3_11_2 0
x_3_11_3 0
x_3_11_4 0
x_3_11_5 0
x_3_12_0 0
x_3_12_1 0
x_3_12_2 0
x_3_12_3 0
x_3_12_4 0
x_3_12_5 0
x_3_13_0 0
x_3_13_1 0
x_3_13_2 0
x_3_13_3 0
x_3_13_4 0
x_3_13_5 0
x_3_14_0 0
x_3_14_1 0
x_3_14_2 0
x_3_14_3 0
x_3_14_4 0
x_3_14_5 0
x_3_15_0 0
x_3_15_1 0
x_3_15_2 0
x_3_15_3 0
x_3_15_4 0
x_3_15_5 0
x_3_16_0 0
x_3_16_1 9.9999869923443574e-01
x_3_16_2 0
x_3_16_3 1
x_3_16_4 4.7963997507061151e-07
x_3_16_5 0
x_3_17_0 0
x_3_17_1 1.3003951938901384e-06
x_3_17_2 0
x_3_17_3 0
x_3_17_4 9.9999952036002493e-01
x_3_17_5 0
x_3_18_0 0
x_3_18_1 0
x_3_18_2 0
x_3_18_3 0
x_3_18_4 0
x_3_18_5 0
x_3_19_0 0
x_3_19_1 0
x_3_19_2 0
x_3_19_3 0
x_3_19_4 0
x_3_19_5 0
x_3_20_0 0
x_3_20_1 0
x_3_20_2 0
x_3_20_3 0
x_3_20_4 0
x_3_20_5 0
x_3_21_0 0
x_3_21_1 0
x_3_21_2 0
x_3_21_3 0
x_3_21_4 0
x_3_21_5 0
x_3_22_0 0
x_3_22_1 0
x_3_22_2 0
x_3_22_3 0
x_3_22_4 0
x_3_22_5 0
x_3_23_0 0
x_3_23_1 1
x_3_23_2 0
x_3_23_3 1
x_3_23_4 1
x_3_23_5 0
x_3_24_0 0
x_3_24_1 0
x_3_24_2 0
x_3_24_3 0
x_3_24_4 0
x_3_24_5 0
x_3_25_0 0
x_3_25_1 0
x_3_25_2 0
x_3_25_3 0
x_3_25_4 0
x_3_25_5 0
x_4_5_0 0
x_4_5_1 0
x_4_5_2 0
x_4_5_3 0
x_4_5_4 0
x_4_5_5 0
x_4_6_0 0
x_4_6_1 0
x_4_6_2 0
x_4_6_3 0
x_4_6_4 0
x_4_6_5 0
x_4_7_0 0
x_4_7_1 0
x_4_7_2 0
x_4_7_3 0
x_4_7_4 0
x_4_7_5 0
x_4_8_0 0
x_4_8_1 0
x_4_8_2 0
x_4_8_3 0
x_4_8_4 0
x_4_8_5 0
x_4_9_0 0
x_4_9_1 0
x_4_9_2 0
x_4_9_3 1.5837988838328133e-07
x_4_9_4 4.0720049443443429e-08
x_4_9_5 0
x_4_10_0 0
x_4_10_1 0
x_4_10_2 0
x_4_10_3 0
x_4_10_4 0
x_4_10_5 0
x_4_11_0 0
x_4_11_1 0
x_4_11_2 0
x_4_11_3 0
x_4_11_4 0
x_4_11_5 0
x_4_12_0 0
x_4_12_1 0
x_4_12_2 0
x_4_12_3 0
x_4_12_4 0
x_4_12_5 0
x_4_13_0 0
x_4_13_1 0
x_4_13_2 0
x_4_13_3 0
x_4_13_4 0
x_4_13_5 0
x_4_14_0 0
x_4_14_1 0
x_4_14_2 0
x_4_14_3 0
x_4_14_4 0
x_4_14_5 0
x_4_15_0 0
x_4_15_1 1
x_4_15_2 0
x_4_15_3 0
x_4_15_4 1.9909993786981772e-07
x_4_15_5 0
x_4_16_0 0
x_4_16_1 0
x_4_16_2 0
x_4_16_3 0
x_4_16_4 0
x_4_16_5 0
x_4_17_0 0
x_4_17_1 0
x_4_17_2 0
x_4_17_3 0
x_4_17_4 0
x_4_17_5 0
x_4_18_0 0
x_4_18_1 0
x_4_18_2 0
x_4_18_3 0
x_4_18_4 0
x_4_18_5 0
x_4_19_0 0
x_4_19_1 0
x_4_19_2 0
x_4_19_3 0
x_4_19_4 0
x_4_19_5 0
x_4_20_0 0
x_4_20_1 0
x_4_20_2 0
x_4_20_3 0
x_4_20_4 0
x_4_20_5 0
x_4_21_0 0
x_4_21_1 0
x_4_21_2 0
x_4_21_3 0
x_4_21_4 0
x_4_21_5 0
x_4_22_0 0
x_4_22_1 0
x_4_22_2 0
x_4_22_3 2.3979149726805468e-07
x_4_22_4 9.9999976018001258e-01
x_4_22_5 0
x_4_23_0 0
x_4_23_1 0
x_4_23_2 0
x_4_23_3 0
x_4_23_4 0
x_4_23_5 0
x_4_24_0 0
x_4_24_1 1
x_4_24_2 1
x_4_24_3 0
x_4_24_4 1.0000000000000002e+00
x_4_24_5 0
x_4_25_0 0
x_4_25_1 0
x_4_25_2 1
x_4_25_3 0
x_4_25_4 0
x_4_25_5 0
x_5_6_0 0
x_5_6_1 0
x_5_6_2 0
x_5_6_3 0
x_5_6_4 0
x_5_6_5 0
x_5_7_0 0
x_5_7_1 0
x_5_7_2 0
x_5_7_3 0
x_5_7_4 0
x_5_7_5 0
x_5_8_0 0
x_5_8_1 0
x_5_8_2 0
x_5_8_3 0
x_5_8_4 0
x_5_8_5 0
x_5_9_0 0
x_5_9_1 0
x_5_9_2 0
x_5_9_3 0
x_5_9_4 0
x_5_9_5 0
x_5_10_0 0
x_5_10_1 0
x_5_10_2 1
x_5_10_3 0
x_5_10_4 0
x_5_10_5 0
x_5_11_0 0
x_5_11_1 0
x_5_11_2 0
x_5_11_3 0
x_5_11_4 0
x_5_11_5 0
x_5_12_0 0
x_5_12_1 0
x_5_12_2 0
x_5_12_3 0
x_5_12_4 0
x_5_12_5 0
x_5_13_0 0
x_5_13_1 0
x_5_13_2 1
x_5_13_3 4.7712703274697831e-07
x_5_13_4 4.9750000125621953e-07
x_5_13_5 0
x_5_14_0 0
x_5_14_1 0
x_5_14_2 0
x_5_14_3 0
x_5_14_4 0
x_5_14_5 0
x_5_15_0 0
x_5_15_1 0
x_5_15_2 0
x_5_15_3 0
x_5_15_4 0
x_5_15_5 0
x_5_16_0 0
x_5_16_1 0
x_5_16_2 0
x_5_16_3 0
x_5_16_4 0
x_5_16_5 0
x_5_17_0 0
x_5_17_1 0
x_5_17_2 0
x_5_17_3 0
x_5_17_4 0
x_5_17_5 0
x_5_18_0 0
x_5_18_1 0
x_5_18_2 0
x_5_18_3 0
x_5_18_4 0
x_5_18_5 0
x_5_19_0 0
x_5_19_1 0
x_5_19_2 0
x_5_19_3 0
x_5_19_4 0
x_5_19_5 0
x_5_20_0 0
x_5_20_1 0
x_5_20_2 0
x_5_20_3 0
x_5_20_4 0
x_5_20_5 0
x_5_21_0 0
x_5_21_1 0
x_5_21_2 0
x_5_21_3 0
x_5_21_4 0
x_5_21_5 0
x_5_22_0 0
x_5_22_1 0
x_5_22_2 0
x_5_22_3 0
x_5_22_4 0
x_5_22_5 0
x_5_23_0 0
x_5_23_1 0
x_5_23_2 0
x_5_23_3 0
x_5_23_4 0
x_5_23_5 0
x_5_24_0 0
x_5_24_1 0
x_5_24_2 0
x_5_24_3 0
x_5_24_4 -5.0000000125621951e-07
x_5_24_5 0
x_5_25_0 0
x_5_25_1 0
x_5_25_2 0
x_5_25_3 0
x_5_25_4 0
x_5_25_5 0
x_6_7_0 0
x_6_7_1 0
x_6_7_2 0
x_6_7_3 0
x_6_7_4 0
x_6_7_5 0
x_6_8_0 0
x_6_8_1 0
x_6_8_2 0
x_6_8_3 0
x_6_8_4 0
x_6_8_5 0
x_6_9_0 0
x_6_9_1 0
x_6_9_2 0
x_6_9_3 0
x_6_9_4 0
x_6_9_5 0
x_6_10_0 0
x_6_10_1 0
x_6_10_2 0
x_6_10_3 0
x_6_10_4 0
x_6_10_5 0
x_6_11_0 0
x_6_11_1 0
x_6_11_2 0
x_6_11_3 0
x_6_11_4 0
x_6_11_5 0
x_6_12_0 0
x_6_12_1 1
x_6_12_2 0
x_6_12_3 9.9999952036002482e-01
x_6_12_4 1
x_6_12_5 0
x_6_13_0 0
x_6_13_1 0
x_6_13_2 0
x_6_13_3 0
x_6_13_4 0
x_6_13_5 0
x_6_14_0 0
x_6_14_1 0
x_6_14_2 0
x_6_14_3 0
x_6_14_4 0
x_6_14_5 0
x_6_15_0 0
x_6_15_1 0
x_6_15_2 0
x_6_15_3 0
x_6_15_4 0
x_6_15_5 0
x_6_16_0 0
x_6_16_1 1
x_6_16_2 0
x_6_16_3 9.9999976018001246e-01
x_6_16_4 1
x_6_16_5 0
x_6_17_0 0
x_6_17_1 0
x_6_17_2 0
x_6_17_3 7.1899699971285725e-07
x_6_17_4 0
x_6_17_5 0
x_6_18_0 0
x_6_18_1 0
x_6_18_2 0
x_6_18_3 0
x_6_18_4 0
x_6_18_5 0
x_6_19_0 0
x_6_19_1 0
x_6_19_2 0
x_6_19_3 0
x_6_19_4 0
x_6_19_5 0
x_6_20_0 0
x_6_20_1 0
x_6_20_2 0
x_6_20_3 0
x_6_20_4 0
x_6_20_5 0
x_6_21_0 0
x_6_21_1 0
x_6_21_2 0
x_6_21_3 0
x_6_21_4 0
x_6_21_5 0
x_6_22_0 0
x_6_22_1 0
x_6_22_2 0
x_6_22_3 0
x_6_22_4 0
x_6_22_5 0
x_6_23_0 0
x_6_23_1 0
x_6_23_2 0
x_6_23_3 0
x_6_23_4 0
x_6_23_5 0
x_6_24_0 0
x_6_24_1 0
x_6_24_2 0
x_6_24_3 0
x_6_24_4 0
x_6_24_5 0
x_6_25_0 0
x_6_25_1 0
x_6_25_2 0
x_6_25_3 0
x_6_25_4 0
x_6_25_5 0
x_7_8_0 0
x_7_8_1 0
x_7_8_2 0
x_7_8_3 0
x_7_8_4 0
x_7_8_5 0
x_7_9_0 0
x_7_9_1 0
x_7_9_2 0
x_7_9_3 0
x_7_9_4 0
x_7_9_5 0
x_7_10_0 0
x_7_10_1 0
x_7_10_2 0
x_7_10_3 0
x_7_10_4 0
x_7_10_5 0
x_7_11_0 0
x_7_11_1 1
x_7_11_2 0
x_7_11_3 0.999999760180012
x_7_11_4 1.9868327186928488e-07
x_7_11_5 0
x_7_12_0 0
x_7_12_1 0
x_7_12_2 0
x_7_12_3 0
x_7_12_4 0
x_7_12_5 0
x_7_13_0 0
x_7_13_1 0
x_7_13_2 0
x_7_13_3 0
x_7_13_4 0
x_7_13_5 0
x_7_14_0 0
x_7_14_1 0
x_7_14_2 0
x_7_14_3 0
x_7_14_4 0
x_7_14_5 0
x_7_15_0 0
x_7_15_1 0
x_7_15_2 0
x_7_15_3 0
x_7_15_4 0
x_7_15_5 0
x_7_16_0 0
x_7_16_1 0
x_7_16_2 0
x_7_16_3 0
x_7_16_4 0
x_7_16_5 0
x_7_17_0 0
x_7_17_1 0
x_7_17_2 0
x_7_17_3 0
x_7_17_4 0
x_7_17_5 0
x_7_18_0 0
x_7_18_1 0
x_7_18_2 0
x_7_18_3 0
x_7_18_4 0
x_7_18_5 0
x_7_19_0 0
x_7_19_1 8.1628358563585057e-07
x_7_19_2 0
x_7_19_3 1.7810644550622045e-07
x_7_19_4 0
x_7_19_5 0
x_7_20_0 0
x_7_20_1 0
x_7_20_2 0
x_7_20_3 0
x_7_20_4 0
x_7_20_5 0
x_7_21_0 0
x_7_21_1 0
x_7_21_2 0
x_7_21_3 0
x_7_21_4 0
x_7_21_5 0
x_7_22_0 0
x_7_22_1 0
x_7_22_2 0
x_7_22_3 0
x_7_22_4 0
x_7_22_5 0
x_7_23_0 0
x_7_23_1 0
x_7_23_2 0
x_7_23_3 0
x_7_23_4 0
x_7_23_5 0
x_7_24_0 0
x_7_24_1 0
x_7_24_2 0
x_7_24_3 0
x_7_24_4 0
x_7_24_5 0
x_7_25_0 0
x_7_25_1 0
x_7_25_2 0
x_7_25_3 0
x_7_25_4 0
x_7_25_5 0
x_8_9_0 0
x_8_9_1 0
x_8_9_2 0
x_8_9_3 0
x_8_9_4 0
x_8_9_5 0
x_8_10_0 0
x_8_10_1 0
x_8_10_2 0
x_8_10_3 0
x_8_10_4 0
x_8_10_5 0
x_8_11_0 0
x_8_11_1 0
x_8_11_2 0
x_8_11_3 0
x_8_11_4 0
x_8_11_5 0
x_8_12_0 0
x_8_12_1 0
x_8_12_2 0
x_8_12_3 0
x_8_12_4 0
x_8_12_5 0
x_8_13_0 0
x_8_13_1 0
x_8_13_2 0
x_8_13_3 0
x_8_13_4 0
x_8_13_5 0
x_8_14_0 0
x_8_14_1 0
x_8_14_2 0
x_8_14_3 0
x_8_14_4 0
x_8_14_5 0
x_8_15_0 0
x_8_15_1 0
x_8_15_2 0
x_8_15_3 0
x_8_15_4 0
x_8_15_5 0
x_8_16_0 0
x_8_16_1 0
x_8_16_2 0
x_8_16_3 0
x_8_16_4 0
x_8_16_5 0
x_8_17_0 0
x_8_17_1 0
x_8_17_2 0
x_8_17_3 0
x_8_17_4 0
x_8_17_5 0
x_8_18_0 0
x_8_18_1 0
x_8_18_2 0
x_8_18_3 0
x_8_18_4 0
x_8_18_5 0
x_8_19_0 0
x_8_19_1 0
x_8_19_2 0
x_8_19_3 0
x_8_19_4 0
x_8_19_5 0
x_8_20_0 0
x_8_20_1 1
x_8_20_2 2.3981998786663111e-07
x_8_20_3 0
x_8_20_4 1
x_8_20_5 0
x_8_21_0 0
x_8_21_1 0
x_8_21_2 0
x_8_21_3 0
x_8_21_4 0
x_8_21_5 0
x_8_22_0 0
x_8_22_1 0
x_8_22_2 0
x_8_22_3 0
x_8_22_4 0
x_8_22_5 0
x_8_23_0 0
x_8_23_1 0
x_8_23_2 0
x_8_23_3 0
x_8_23_4 0
x_8_23_5 0
x_8_24_0 0
x_8_24_1 1
x_8_24_2 1
x_8_24_3 0
x_8_24_4 1
x_8_24_5 0
x_8_25_0 0
x_8_25_1 0
x_8_25_2 0
x_8_25_3 0
x_8_25_4 0
x_8_25_5 0
x_9_10_0 0
x_9_10_1 0
x_9_10_2 0
x_9_10_3 0
x_9_10_4 0
x_9_10_5 0
x_9_11_0 0
x_9_11_1 1
x_9_11_2 0
x_9_11_3 9.9999960180012448e-01
x_9_11_4 1.9909993809186233e-07
x_9_11_5 0
x_9_12_0 0
x_9_12_1 0
x_9_12_2 0
x_9_12_3 0
x_9_12_4 1
x_9_12_5 0
x_9_13_0 0
x_9_13_1 0
x_9_13_2 0
x_9_13_3 0
x_9_13_4 0
x_9_13_5 0
x_9_14_0 0
x_9_14_1 0
x_9_14_2 0
x_9_14_3 0
x_9_14_4 0
x_9_14_5 0
x_9_15_0 0
x_9_15_1 0
x_9_15_2 0
x_9_15_3 0
x_9_15_4 0
x_9_15_5 0
x_9_16_0 0
x_9_16_1 0
x_9_16_2 0
x_9_16_3 0
x_9_16_4 0
x_9_16_5 0
x_9_17_0 0
x_9_17_1 0
x_9_17_2 0
x_9_17_3 0
x_9_17_4 0
x_9_17_5 0
x_9_18_0 0
x_9_18_1 0
x_9_18_2 0
x_9_18_3 0
x_9_18_4 0
x_9_18_5 0
x_9_19_0 0
x_9_19_1 0
x_9_19_2 0
x_9_19_3 0
x_9_19_4 0
x_9_19_5 0
x_9_20_0 0
x_9_20_1 0
x_9_20_2 0
x_9_20_3 0
x_9_20_4 0
x_9_20_5 0
x_9_21_0 0
x_9_21_1 0
x_9_21_2 0
x_9_21_3 0
x_9_21_4 0
x_9_21_5 0
x_9_22_0 0
x_9_22_1 0
x_9_22_2 0
x_9_22_3 0
x_9_22_4 0
x_9_22_5 0
x_9_23_0 0
x_9_23_1 0
x_9_23_2 0
x_9_23_3 0
x_9_23_4 0
x_9_23_5 0
x_9_24_0 0
x_9_24_1 0
x_9_24_2 0
x_9_24_3 0
x_9_24_4 0
x_9_24_5 0
x_9_25_0 0
x_9_25_1 0
x_9_25_2 0
x_9_25_3 4.7963997496191961e-07
x_9_25_4 9.9999976018001246e-01
x_9_25_5 0
x_10_11_0 0
x_10_11_1 0
x_10_11_2 0
x_10_11_3 0
x_10_11_4 0
x_10_11_5 0
x_10_12_0 0
x_10_12_1 0
x_10_12_2 0
x_10_12_3 0
x_10_12_4 0
x_10_12_5 0
x_10_13_0 0
x_10_13_1 0
x_10_13_2 0
x_10_13_3 0
x_10_13_4 0
x_10_13_5 0
x_10_14_0 0
x_10_14_1 0
x_10_14_2 0
x_10_14_3 0
x_10_14_4 0
x_10_14_5 0
x_10_15_0 0
x_10_15_1 0
x_10_15_2 0
x_10_15_3 0
x_10_15_4 0
x_10_15_5 0
x_10_16_0 0
x_10_16_1 0
x_10_16_2 0
x_10_16_3 0
x_10_16_4 0
x_10_16_5 0
x_10_17_0 0
x_10_17_1 0
x_10_17_2 0
x_10_17_3 0
x_10_17_4 0
x_10_17_5 0
x_10_18_0 0
x_10_18_1 0
x_10_18_2 0
x_10_18_3 1.5837988838328131e-07
x_10_18_4 9.9999980090006213e-01
x_10_18_5 0
x_10_19_0 0
x_10_19_1 0
x_10_19_2 0
x_10_19_3 0
x_10_19_4 0
x_10_19_5 0
x_10_20_0 0
x_10_20_1 0
x_10_20_2 0
x_10_20_3 0
x_10_20_4 0
x_10_20_5 0
x_10_21_0 0
x_10_21_1 0
x_10_21_2 0
x_10_21_3 0
x_10_21_4 0
x_10_21_5 0
x_10_22_0 0
x_10_22_1 0
x_10_22_2 1
x_10_22_3 2.3981998742428345e-07
x_10_22_4 9.9999980090006213e-01
x_10_22_5 0
x_10_23_0 0
x_10_23_1 0
x_10_23_2 0
x_10_23_3 0
x_10_23_4 0
x_10_23_5 0
x_10_24_0 0
x_10_24_1 0
x_10_24_2 0
x_10_24_3 0
x_10_24_4 0
x_10_24_5 0
x_10_25_0 0
x_10_25_1 0
x_10_25_2 0
x_10_25_3 0
x_10_25_4 0
x_10_25_5 0
x_11_12_0 0
x_11_12_1 0
x_11_12_2 0
x_11_12_3 0
x_11_12_4 0
x_11_12_5 0
x_11_13_0 0
x_11_13_1 0
x_11_13_2 0
x_11_13_3 0
x_11_13_4 0
x_11_13_5 0
x_11_14_0 0
x_11_14_1 0
x_11_14_2 0
x_11_14_3 0
x_11_14_4 0
x_11_14_5 0
x_11_15_0 0
x_11_15_1 0
x_11_15_2 0
x_11_15_3 0
x_11_15_4 0
x_11_15_5 0
x_11_16_0 0
x_11_16_1 0
x_11_16_2 0
x_11_16_3 0
x_11_16_4 0
x_11_16_5 0
x_11_17_0 0
x_11_17_1 0
x_11_17_2 0
x_11_17_3 0
x_11_17_4 0
x_11_17_5 0
x_11_18_0 0
x_11_18_1 0
x_11_18_2 0
x_11_18_3 0
x_11_18_4 0
x_11_18_5 0
x_11_19_0 0
x_11_19_1 0
x_11_19_2 0
x_11_19_3 0
x_11_19_4 0
x_11_19_5 0
x_11_20_0 0
x_11_20_1 0
x_11_20_2 0
x_11_20_3 0
x_11_20_4 0
x_11_20_5 0
x_11_21_0 0
x_11_21_1 0
x_11_21_2 0
x_11_21_3 0
x_11_21_4 0
x_11_21_5 0
x_11_22_0 0
x_11_22_1 0
x_11_22_2 0
x_11_22_3 0
x_11_22_4 0
x_11_22_5 0
x_11_23_0 0
x_11_23_1 0
x_11_23_2 0
x_11_23_3 0
x_11_23_4 0
x_11_23_5 0
x_11_24_0 0
x_11_24_1 0
x_11_24_2 0
x_11_24_3 0
x_11_24_4 0
x_11_24_5 0
x_11_25_0 0
x_11_25_1 0
x_11_25_2 0
x_11_25_3 0
x_11_25_4 0
x_11_25_5 0
x_12_13_0 0
x_12_13_1 0
x_12_13_2 0
x_12_13_3 0
x_12_13_4 0
x_12_13_5 0
x_12_14_0 0
x_12_14_1 0
x_12_14_2 0
x_12_14_3 0
x_12_14_4 0
x_12_14_5 0
x_12_15_0 0
x_12_15_1 0
x_12_15_2 0
x_12_15_3 0
x_12_15_4 0
x_12_15_5 0
x_12_16_0 0
x_12_16_1 0
x_12_16_2 0
x_12_16_3 4.7963997518163382e-07
x_12_16_4 0
x_12_16_5 0
x_12_17_0 0
x_12_17_1 0
x_12_17_2 0
x_12_17_3 0
x_12_17_4 0
x_12_17_5 0
x_12_18_0 0
x_12_18_1 0
x_12_18_2 0
x_12_18_3 0
x_12_18_4 0
x_12_18_5 0
x_12_19_0 0
x_12_19_1 0
x_12_19_2 0
x_12_19_3 0
x_12_19_4 0
x_12_19_5 0
x_12_20_0 0
x_12_20_1 0
x_12_20_2 0
x_12_20_3 0
x_12_20_4 0
x_12_20_5 0
x_12_21_0 0
x_12_21_1 0
x_12_21_2 0
x_12_21_3 0
x_12_21_4 0
x_12_21_5 0
x_12_22_0 0
x_12_22_1 0
x_12_22_2 0
x_12_22_3 0
x_12_22_4 0
x_12_22_5 0
x_12_23_0 0
x_12_23_1 0
x_12_23_2 0
x_12_23_3 0
x_12_23_4 0
x_12_23_5 0
x_12_24_0 0
x_12_24_1 0
x_12_24_2 0
x_12_24_3 0
x_12_24_4 0
x_12_24_5 0
x_12_25_0 0
x_12_25_1 0
x_12_25_2 0
x_12_25_3 0
x_12_25_4 0
x_12_25_5 0
x_13_14_0 0
x_13_14_1 0
x_13_14_2 0
x_13_14_3 0
x_13_14_4 0
x_13_14_5 0
x_13_15_0 0
x_13_15_1 0
x_13_15_2 0
x_13_15_3 0
x_13_15_4 0
x_13_15_5 0
x_13_16_0 0
x_13_16_1 0
x_13_16_2 0
x_13_16_3 0
x_13_16_4 0
x_13_16_5 0
x_13_17_0 0
x_13_17_1 0
x_13_17_2 0
x_13_17_3 0
x_13_17_4 0
x_13_17_5 0
x_13_18_0 0
x_13_18_1 0
x_13_18_2 0
x_13_18_3 0
x_13_18_4 0
x_13_18_5 0
x_13_19_0 0
x_13_19_1 0
x_13_19_2 0
x_13_19_3 0
x_13_19_4 0
x_13_19_5 0
x_13_20_0 0
x_13_20_1 0
x_13_20_2 0
x_13_20_3 0
x_13_20_4 0
x_13_20_5 0
x_13_21_0 0
x_13_21_1 9.9999918324022530e-01
x_13_21_2 8.1422142996319165e-07
x_13_21_3 0
x_13_21_4 9.9999952040089546e-01
x_13_21_5 0
x_13_22_0 0
x_13_22_1 0
x_13_22_2 0
x_13_22_3 0
x_13_22_4 0
x_13_22_5 0
x_13_23_0 0
x_13_23_1 0
x_13_23_2 0
x_13_23_3 0
x_13_23_4 0
x_13_23_5 0
x_13_24_0 0
x_13_24_1 0
x_13_24_2 0
x_13_24_3 0
x_13_24_4 0
x_13_24_5 0
x_13_25_0 0
x_13_25_1 0
x_13_25_2 0
x_13_25_3 0
x_13_25_4 0
x_13_25_5 0
x_14_15_0 0
x_14_15_1 0
x_14_15_2 0
x_14_15_3 0
x_14_15_4 0
x_14_15_5 0
x_14_16_0 0
x_14_16_1 0
x_14_16_2 0
x_14_16_3 0
x_14_16_4 0
x_14_16_5 0
x_14_17_0 0
x_14_17_1 9.9999869923443574e-01
x_14_17_2 0
x_14_17_3 9.9999928054003728e-01
x_14_17_4 4.7963997507061151e-07
x_14_17_5 0
x_14_18_0 0
x_14_18_1 0
x_14_18_2 0
x_14_18_3 0
x_14_18_4 0
x_14_18_5 0
x_14_19_0 0
x_14_19_1 0
x_14_19_2 0
x_14_19_3 0
x_14_19_4 0
x_14_19_5 0
x_14_20_0 0
x_14_20_1 8.1675977472269268e-07
x_14_20_2 0
x_14_20_3 9.9999976019796688e-01
x_14_20_4 -2.0360026157852431e-08
x_14_20_5 0
x_14_21_0 0
x_14_21_1 9.9999918325552661e-01
x_14_21_2 0
x_14_21_3 0
x_14_21_4 0
x_14_21_5 0
x_14_22_0 0
x_14_22_1 0
x_14_22_2 0
x_14_22_3 0
x_14_22_4 0
x_14_22_5 0
x_14_23_0 0
x_14_23_1 1.3007655642605087e-06
x_14_23_2 0
x_14_23_3 0
x_14_23_4 0
x_14_23_5 0
x_14_24_0 0
x_14_24_1 0
x_14_24_2 0
x_14_24_3 0
x_14_24_4 5.00000001180112e-07
x_14_24_5 0
x_14_25_0 0
x_14_25_1 0
x_14_25_2 0
x_14_25_3 0
x_14_25_4 0
x_14_25_5 0
x_15_16_0 0
x_15_16_1 0
x_15_16_2 0
x_15_16_3 0
x_15_16_4 0
x_15_16_5 0
x_15_17_0 0
x_15_17_1 0
x_15_17_2 0
x_15_17_3 0
x_15_17_4 0
x_15_17_5 0
x_15_18_0 0
x_15_18_1 1
x_15_18_2 0
x_15_18_3 0
x_15_18_4 1.9909993790378239e-07
x_15_18_5 0
x_15_19_0 0
x_15_19_1 0
x_15_19_2 9.9999918329883020e-01
x_15_19_3 0
x_15_19_4 9.9999984162011168e-01
x_15_19_5 0
x_15_20_0 0
x_15_20_1 0
x_15_20_2 0
x_15_20_3 0
x_15_20_4 0
x_15_20_5 0
x_15_21_0 0
x_15_21_1 0
x_15_21_2 0
x_15_21_3 0
x_15_21_4 0
x_15_21_5 0
x_15_22_0 0
x_15_22_1 0
x_15_22_2 8.1670116984104321e-07
x_15_22_3 0
x_15_22_4 0
x_15_22_5 0
x_15_23_0 0
x_15_23_1 0
x_15_23_2 0
x_15_23_3 0
x_15_23_4 0
x_15_23_5 0
x_15_24_0 0
x_15_24_1 0
x_15_24_2 0
x_15_24_3 0
x_15_24_4 0
x_15_24_5 0
x_15_25_0 0
x_15_25_1 0
x_15_25_2 1.0000000000000064e+00
x_15_25_3 0
x_15_25_4 9.9999976018001246e-01
x_15_25_5 0
x_16_17_0 0
x_16_17_1 1.3007502629911887e-06
x_16_17_2 0
x_16_17_3 -2.3981998764632806e-07
x_16_17_4 9.9999952036002493e-01
x_16_17_5 0
x_16_18_0 0
x_16_18_1 0
x_16_18_2 0
x_16_18_3 0
x_16_18_4 0
x_16_18_5 0
x_16_19_0 0
x_16_19_1 0
x_16_19_2 0
x_16_19_3 0
x_16_19_4 0
x_16_19_5 0
x_16_20_0 0
x_16_20_1 0
x_16_20_2 0
x_16_20_3 0
x_16_20_4 0
x_16_20_5 0
x_16_21_0 0
x_16_21_1 0
x_16_21_2 0
x_16_21_3 0
x_16_21_4 0
x_16_21_5 0
x_16_22_0 0
x_16_22_1 0
x_16_22_2 0
x_16_22_3 0
x_16_22_4 0
x_16_22_5 0
x_16_23_0 0
x_16_23_1 0
x_16_23_2 0
x_16_23_3 0
x_16_23_4 0
x_16_23_5 0
x_16_24_0 0
x_16_24_1 0
x_16_24_2 0
x_16_24_3 0
x_16_24_4 0
x_16_24_5 0
x_16_25_0 0
x_16_25_1 0
x_16_25_2 0
x_16_25_3 0
x_16_25_4 0
x_16_25_5 0
x_17_18_0 0
x_17_18_1 0
x_17_18_2 0
x_17_18_3 0
x_17_18_4 0
x_17_18_5 0
x_17_19_0 0
x_17_19_1 0
x_17_19_2 0
x_17_19_3 0
x_17_19_4 0
x_17_19_5 0
x_17_20_0 0
x_17_20_1 0
x_17_20_2 0
x_17_20_3 0
x_17_20_4 0
x_17_20_5 0
x_17_21_0 0
x_17_21_1 0
x_17_21_2 0
x_17_21_3 0
x_17_21_4 0
x_17_21_5 0
x_17_22_0 0
x_17_22_1 0
x_17_22_2 0
x_17_22_3 0
x_17_22_4 0
x_17_22_5 0
x_17_23_0 0
x_17_23_1 9.9999869923443574e-01
x_17_23_2 0
x_17_23_3 1.0000002398199876e+00
x_17_23_4 4.7963997507061151e-07
x_17_23_5 0
x_17_24_0 0
x_17_24_1 0
x_17_24_2 0
x_17_24_3 0
x_17_24_4 0
x_17_24_5 0
x_17_25_0 0
x_17_25_1 0
x_17_25_2 0
x_17_25_3 0
x_17_25_4 0
x_17_25_5 0
x_18_19_0 0
x_18_19_1 0
x_18_19_2 9.9999918327634152e-01
x_18_19_3 6.5787062897805608e-07
x_18_19_4 0
x_18_19_5 0
x_18_20_0 0
x_18_20_1 0
x_18_20_2 0
x_18_20_3 0
x_18_20_4 0
x_18_20_5 0
x_18_21_0 0
x_18_21_1 0
x_18_21_2 0
x_18_21_3 0
x_18_21_4 0
x_18_21_5 0
x_18_22_0 0
x_18_22_1 0
x_18_22_2 9.9999918329995707e-01
x_18_22_3 0
x_18_22_4 0
x_18_22_5 0
x_18_23_0 0
x_18_23_1 0
x_18_23_2 0
x_18_23_3 0
x_18_23_4 0
x_18_23_5 0
x_18_24_0 0
x_18_24_1 0
x_18_24_2 0
x_18_24_3 0
x_18_24_4 0
x_18_24_5 0
x_18_25_0 0
x_18_25_1 0
x_18_25_2 0
x_18_25_3 0
x_18_25_4 0
x_18_25_5 0
x_19_20_0 0
x_19_20_1 0
x_19_20_2 0
x_19_20_3 0
x_19_20_4 0
x_19_20_5 0
x_19_21_0 0
x_19_21_1 0
x_19_21_2 0
x_19_21_3 0
x_19_21_4 0
x_19_21_5 0
x_19_22_0 0
x_19_22_1 0
x_19_22_2 0
x_19_22_3 0
x_19_22_4 0
x_19_22_5 0
x_19_23_0 0
x_19_23_1 0
x_19_23_2 0
x_19_23_3 0
x_19_23_4 0
x_19_23_5 0
x_19_24_0 0
x_19_24_1 0
x_19_24_2 0
x_19_24_3 0
x_19_24_4 0
x_19_24_5 0
x_19_25_0 0
x_19_25_1 0
x_19_25_2 0
x_19_25_3 0
x_19_25_4 0
x_19_25_5 0
x_20_21_0 0
x_20_21_1 0
x_20_21_2 0
x_20_21_3 0
x_20_21_4 0
x_20_21_5 0
x_20_22_0 0
x_20_22_1 0
x_20_22_2 0
x_20_22_3 0
x_20_22_4 0
x_20_22_5 0
x_20_23_0 0
x_20_23_1 0
x_20_23_2 0
x_20_23_3 -2.3980766162382030e-07
x_20_23_4 0
x_20_23_5 0
x_20_24_0 0
x_20_24_1 0
x_20_24_2 0
x_20_24_3 0
x_20_24_4 0
x_20_24_5 0
x_20_25_0 0
x_20_25_1 0
x_20_25_2 0
x_20_25_3 0
x_20_25_4 0
x_20_25_5 0
x_21_22_0 0
x_21_22_1 0
x_21_22_2 0
x_21_22_3 0
x_21_22_4 0
x_21_22_5 0
x_21_23_0 0
x_21_23_1 0
x_21_23_2 0
x_21_23_3 0
x_21_23_4 0.999999520371926
x_21_23_5 0
x_21_24_0 0
x_21_24_1 0
x_21_24_2 0
x_21_24_3 0
x_21_24_4 0
x_21_24_5 0
x_21_25_0 0
x_21_25_1 0
x_21_25_2 0
x_21_25_3 0
x_21_25_4 0
x_21_25_5 0
x_22_23_0 0
x_22_23_1 0
x_22_23_2 0
x_22_23_3 0
x_22_23_4 0
x_22_23_5 0
x_22_24_0 0
x_22_24_1 0
x_22_24_2 0
x_22_24_3 0
x_22_24_4 0
x_22_24_5 0
x_22_25_0 0
x_22_25_1 0
x_22_25_2 0
x_22_25_3 0
x_22_25_4 0
x_22_25_5 0
x_23_24_0 0
x_23_24_1 0
x_23_24_2 0
x_23_24_3 0
x_23_24_4 0
x_23_24_5 0
x_23_25_0 0
x_23_25_1 0
x_23_25_2 0
x_23_25_3 0
x_23_25_4 0
x_23_25_5 0
x_24_25_0 0
x_24_25_1 0
x_24_25_2 0
x_24_25_3 0
x_24_25_4 0
x_24_25_5 0
